50
    1    47    50
    2    27    26
    3    22    26
    4    27    29
    5    15    14
    6    19    18
    7     1     1
    8    28    30
    9    48    43
   10    21    16
   11    27    22
   12    51    47
   13    14    10
   14    32    32
   15    28    33
   16    14    19
   17    39    43
   18    11    12
   19     1     1
   20    22    24
   21     5     7
   22    21    20
   23    46    46
   24    27    25
   25     4     1
   26    38    42
   27     3     8
   28    33    38
   29    42    38
   30    24    25
   31    47    50
   32    10     6
   33    16    16
   34    24    25
   35     1     4
   36    41    41
   37    27    22
   38    32    31
   39    41    44
   40    35    39
   41    23    27
   42    38    38
   43     5     6
   44    45    40
   45     1     3
   46    12     9
   47     5     2
   48    41    40
   49    19    19
   50    16    12
406
